
Gurobi 9.5.2 (win64) logging started Mon Mar 27 20:27:34 2023

Set parameter LogFile to value "2023-03-27_20hr-25min-09sec/Nodes30_Arcs55_LocNodes22/Formulation-2Instance-2.log"
Set parameter TimeLimit to value 600
Set parameter IntFeasTol to value 1e-09
Set parameter DualReductions to value 0
Set parameter NonConvex to value 2
Gurobi Optimizer version 9.5.2 build v9.5.2rc0 (win64)
Thread count: 4 physical cores, 8 logical processors, using up to 8 threads
Optimize a model with 138 rows, 244 columns and 538 nonzeros
Model fingerprint: 0x53df9e78
Model has 85 quadratic objective terms
Model has 85 SOS constraints
Variable types: 222 continuous, 22 integer (22 binary)
Coefficient statistics:
  Matrix range     [5e-03, 2e+02]
  Objective range  [6e-02, 1e+03]
  QObjective range [1e-02, 8e+00]
  Bounds range     [1e+00, 1e+00]
  RHS range        [6e-02, 2e+03]
Presolve removed 6 rows and 6 columns
Presolve time: 0.00s
Presolved: 132 rows, 238 columns, 532 nonzeros
Presolved model has 85 SOS constraint(s)
Presolved model has 85 quadratic objective terms
Variable types: 216 continuous, 22 integer (22 binary)

Root relaxation: objective 2.942330e+05, 313 iterations, 0.01 seconds (0.00 work units)

    Nodes    |    Current Node    |     Objective Bounds      |     Work
 Expl Unexpl |  Obj  Depth IntInf | Incumbent    BestBd   Gap | It/Node Time

     0     0 294232.989    0   14          - 294232.989      -     -    0s
H    0     0                    282229.81855 294232.989  4.25%     -    0s
     0     0 294205.318    0   16 282229.819 294205.318  4.24%     -    0s
H    0     0                    282519.91736 293876.550  4.02%     -    0s
H    0     0                    284592.23054 293876.550  3.26%     -    0s
     0     0 293366.247    0   16 284592.231 293366.247  3.08%     -    0s
H    0     0                    291639.64037 293366.247  0.59%     -    0s
     0     0 293297.172    0   15 291639.640 293297.172  0.57%     -    0s
     0     0 293279.806    0   13 291639.640 293279.806  0.56%     -    0s
     0     0 293279.806    0   43 291639.640 293279.806  0.56%     -    0s
     0     0 293279.806    0   46 291639.640 293279.806  0.56%     -    0s
     0     0 293279.806    0   46 291639.640 293279.806  0.56%     -    0s
     0     0 293279.806    0   44 291639.640 293279.806  0.56%     -    0s
     0     0 293267.042    0   44 291639.640 293267.042  0.56%     -    0s
     0     0 293267.042    0   44 291639.640 293267.042  0.56%     -    0s
     0     0 292447.851    0   19 291639.640 292447.851  0.28%     -    0s
     0     0 292447.851    0   21 291639.640 292447.851  0.28%     -    0s
     0     0 292250.472    0   20 291639.640 292250.472  0.21%     -    0s
     0     0 291938.834    0   20 291639.640 291938.834  0.10%     -    0s
     0     0 291938.834    0   20 291639.640 291938.834  0.10%     -    0s
     0     0 291775.251    0   20 291639.640 291775.251  0.05%     -    0s
     0     0 291689.091    0   20 291639.640 291689.091  0.02%     -    0s
     0     0 291685.607    0   20 291639.640 291685.607  0.02%     -    0s

Cutting planes:
  Cover: 1
  Implied bound: 2
  MIR: 5
  Flow cover: 10

Explored 1 nodes (1126 simplex iterations) in 0.68 seconds (0.08 work units)
Thread count was 8 (of 8 available processors)

Solution count 6: 291640 284592 284435 ... 282230

Optimal solution found (tolerance 1.00e-04)
Best objective 2.916396403744e+05, best bound 2.916587364300e+05, gap 0.0065%

User-callback calls 502, time in user-callback 0.00 sec
